ilp_joint_2/output/conservation_ilp.lp
Maximize
  0.00218893951258037 Z_22_1_0 + 0.00677260790472189 Z_22_1_1
   + 0.4476910055092543 Z_22_1_2 + 0.00934578372378587 Z_22_1_3
Subject To
 constraint1_221: Z_22_1_0 + Z_22_1_1 + Z_22_1_2 + Z_22_1_3 <= 1
 constraint2_220: Z_22_1_0 <= 1
 constraint2_221: Z_22_1_1 <= 1
 constraint2_222: Z_22_1_2 <= 1
 constraint2_223: Z_22_1_3 <= 1
Bounds
Binaries
 Z_22_1_0 Z_22_1_1 Z_22_1_2 Z_22_1_3
End
