ilp_joint_2/output/conservation_ilp.sol
# Solution for model conservation_srl_ilp
# Objective value = 4.4769100550925434e-01
Z_22_1_0 0
Z_22_1_1 0
Z_22_1_2 1
Z_22_1_3 0
